c Crown graph on 10 vertices
c adversarial MDS test instance generated for Furones experiments
p edge 10 20
e 1 7
e 1 8
e 1 9
e 1 10
e 2 6
e 2 8
e 2 9
e 2 10
e 3 6
e 3 7
e 3 9
e 3 10
e 4 6
e 4 7
e 4 8
e 4 10
e 5 6
e 5 7
e 5 8
e 5 9
